max: -700 x1 -1000 x2 -200 x3 -100 x4 +0 x5 +0 x6 +900 x7 +1200 x8 +1000 x9 ;
+ 1 x1 <=50000;
+ 1 x2 <=80000;
+ 0.6 x1 - 1 x3 =0;
+ 0.4 x1 - 1 x5 =0;
+ 0.3 x2 - 1 x4 =0;
+ 0.7 x2 - 1 x6 =0;
+ 1 x3 + 1 x4 - 1 x7 =0;
- 1 x5 + 0.2 x8 + 0.4 x9 =0;
- 1 x6 + 0.8 x8 + 0.6 x9 =0;
